\ Myths and Counterexamples in Integer Programming and Combinatorial Optimization
\ Harvey J. Greenberg
Maximize
  0 x1
Subject To
  + 2 x1 + 2 x2 + 2 x3 + 2 x4 + 2 x5 + 2 x6 + 2 x7 + 2 x8 + 2 x9 + 2 x10 + 2 x11 + 2 x12 + 2 x13 + 2 x14 + 2 x15 + 2 x16 + 2 x17 + 2 x18 + 2 x19 + 2 x20 + 2 x21 + 2 x22 + 2 x23 + 2 x24 + 2 x25 + 2 x26 + 2 x27 + 2 x28 + 2 x29 + 2 x30 + 2 x31 + 2 x32 + 2 x33 + 2 x34 + 2 x35 + 2 x36 + 2 x37 + 2 x38 + 2 x39 + 2 x40 + 2 x41 + 2 x42 + 2 x43 + 2 x44 + 2 x45 + 2 x46 + 2 x47 + 2 x48 + 2 x49 + 2 x50 + 2 x51 + 2 x52 + 2 x53 + 2 x54 + 2 x55 + 2 x56 + 2 x57 + 2 x58 + 2 x59 + 2 x60 + 2 x61 + 2 x62 + 2 x63 + 2 x64 + 2 x65 + 2 x66 + 2 x67 + 2 x68 + 2 x69 + 2 x70 + 2 x71 + 2 x72 + 2 x73 + 2 x74 + 2 x75 + 2 x76 + 2 x77 + 2 x78 + 2 x79 + 2 x80 + 2 x81 + 2 x82 + 2 x83 + 2 x84 + 2 x85 + 2 x86 + 2 x87 + 2 x88 + 2 x89 + 2 x90 + 2 x91 + 2 x92 + 2 x93 + 2 x94 + 2 x95 + 2 x96 + 2 x97 + 2 x98 + 2 x99 + 2 x100 + 2 x101 + 2 x102 + 2 x103 + 2 x104 + 2 x105 + 2 x106 + 2 x107 + 2 x108 + 2 x109 + 2 x110 + 2 x111 + 2 x112 + 2 x113 + 2 x114 + 2 x115 + 2 x116 + 2 x117 + 2 x118 + 2 x119 + 2 x120 + 2 x121 + 2 x122 + 2 x123 + 2 x124 + 2 x125 + 2 x126 + 2 x127 + 2 x128 + 2 x129 + 2 x130 + 2 x131 + 2 x132 + 2 x133 + 2 x134 + 2 x135 + 2 x136 + 2 x137 + 2 x138 + 2 x139 + 2 x140 + 2 x141 + 2 x142 + 2 x143 + 2 x144 + 2 x145 + 2 x146 + 2 x147 + 2 x148 + 2 x149 + 2 x150 + 2 x151 + 2 x152 + 2 x153 + 2 x154 + 2 x155 + 2 x156 + 2 x157 + 2 x158 + 2 x159 + 2 x160 + 2 x161 + 2 x162 + 2 x163 + 2 x164 + 2 x165 + 2 x166 + 2 x167 + 2 x168 + 2 x169 + 2 x170 + 2 x171 + 2 x172 + 2 x173 + 2 x174 + 2 x175 + 2 x176 + 2 x177 + 2 x178 + 2 x179 + 2 x180 + 2 x181 + 2 x182 + 2 x183 + 2 x184 + 2 x185 + 2 x186 + 2 x187 + 2 x188 + 2 x189 + 2 x190 + 2 x191 + 2 x192 + 2 x193 + 2 x194 + 2 x195 + 2 x196 + 2 x197 + 2 x198 + 2 x199 + 2 x200 + 2 x201 + 2 x202 + 2 x203 + 2 x204 + 2 x205 + 2 x206 + 2 x207 + 2 x208 + 2 x209 + 2 x210 + 2 x211 + 2 x212 + 2 x213 + 2 x214 + 2 x215 + 2 x216 + 2 x217 + 2 x218 + 2 x219 + 2 x220 + 2 x221 + 2 x222 + 2 x223 + 2 x224 + 2 x225 + 2 x226 + 2 x227 + 2 x228 + 2 x229 + 2 x230 + 2 x231 + 2 x232 + 2 x233 + 2 x234 + 2 x235 + 2 x236 + 2 x237 + 2 x238 + 2 x239 + 2 x240 + 2 x241 + 2 x242 + 2 x243 + 2 x244 + 2 x245 + 2 x246 + 2 x247 + 2 x248 + 2 x249 + 2 x250 + 2 x251 + 2 x252 + 2 x253 + 2 x254 + 2 x255 + 2 x256 + 2 x257 + 2 x258 + 2 x259 + 2 x260 + 2 x261 + 2 x262 + 2 x263 + 2 x264 + 2 x265 + 2 x266 + 2 x267 + 2 x268 + 2 x269 + 2 x270 + 2 x271 + 2 x272 + 2 x273 + 2 x274 + 2 x275 + 2 x276 + 2 x277 + 2 x278 + 2 x279 + 2 x280 + 2 x281 + 2 x282 + 2 x283 + 2 x284 + 2 x285 + 2 x286 + 2 x287 + 2 x288 + 2 x289 + 2 x290 + 2 x291 + 2 x292 + 2 x293 + 2 x294 + 2 x295 + 2 x296 + 2 x297 + 2 x298 + 2 x299 + 2 x300 + 2 x301 + 2 x302 + 2 x303 + 2 x304 + 2 x305 + 2 x306 + 2 x307 + 2 x308 + 2 x309 + 2 x310 + 2 x311 + 2 x312 + 2 x313 + 2 x314 + 2 x315 + 2 x316 + 2 x317 + 2 x318 + 2 x319 + 2 x320 + 2 x321 + 2 x322 + 2 x323 + 2 x324 + 2 x325 + 2 x326 + 2 x327 + 2 x328 + 2 x329 + 2 x330 + 2 x331 + 2 x332 + 2 x333 + 2 x334 + 2 x335 + 2 x336 + 2 x337 + 2 x338 + 2 x339 + 2 x340 + 2 x341 + 2 x342 + 2 x343 + 2 x344 + 2 x345 + 2 x346 + 2 x347 + 2 x348 + 2 x349 + 2 x350 + 2 x351 + 2 x352 + 2 x353 + 2 x354 + 2 x355 + 2 x356 + 2 x357 + 2 x358 + 2 x359 + 2 x360 + 2 x361 + 2 x362 + 2 x363 + 2 x364 + 2 x365 + 2 x366 + 2 x367 + 2 x368 + 2 x369 + 2 x370 + 2 x371 + 2 x372 + 2 x373 + 2 x374 + 2 x375 + 2 x376 + 2 x377 + 2 x378 + 2 x379 + 2 x380 + 2 x381 + 2 x382 + 2 x383 + 2 x384 + 2 x385 + 2 x386 + 2 x387 + 2 x388 + 2 x389 + 2 x390 + 2 x391 + 2 x392 + 2 x393 + 2 x394 + 2 x395 + 2 x396 + 2 x397 + 2 x398 + 2 x399 + 2 x400 + 2 x401 + 2 x402 + 2 x403 + 2 x404 + 2 x405 + 2 x406 + 2 x407 + 2 x408 + 2 x409 + 2 x410 + 2 x411 + 2 x412 + 2 x413 + 2 x414 + 2 x415 + 2 x416 + 2 x417 + 2 x418 + 2 x419 + 2 x420 + 2 x421 + 2 x422 + 2 x423 + 2 x424 + 2 x425 + 2 x426 + 2 x427 + 2 x428 + 2 x429 + 2 x430 + 2 x431 + 2 x432 + 2 x433 + 2 x434 + 2 x435 + 2 x436 + 2 x437 + 2 x438 + 2 x439 + 2 x440 + 2 x441 + 2 x442 + 2 x443 + 2 x444 + 2 x445 + 2 x446 + 2 x447 + 2 x448 + 2 x449 + 2 x450 + 2 x451 + 2 x452 + 2 x453 + 2 x454 + 2 x455 + 2 x456 + 2 x457 + 2 x458 + 2 x459 + 2 x460 + 2 x461 + 2 x462 + 2 x463 + 2 x464 + 2 x465 + 2 x466 + 2 x467 + 2 x468 + 2 x469 + 2 x470 + 2 x471 + 2 x472 + 2 x473 + 2 x474 + 2 x475 + 2 x476 + 2 x477 + 2 x478 + 2 x479 + 2 x480 + 2 x481 + 2 x482 + 2 x483 + 2 x484 + 2 x485 + 2 x486 + 2 x487 + 2 x488 + 2 x489 + 2 x490 + 2 x491 + 2 x492 + 2 x493 + 2 x494 + 2 x495 + 2 x496 + 2 x497 + 2 x498 + 2 x499 + 2 x500 + 2 x501 + 2 x502 + 2 x503 + 2 x504 + 2 x505 + 2 x506 + 2 x507 + 2 x508 + 2 x509 + 2 x510 + 2 x511 + 2 x512 + 2 x513 + 2 x514 + 2 x515 + 2 x516 + 2 x517 + 2 x518 + 2 x519 + 2 x520 + 2 x521 + 2 x522 + 2 x523 + 2 x524 + 2 x525 + 2 x526 + 2 x527 + 2 x528 + 2 x529 + 2 x530 + 2 x531 + 2 x532 + 2 x533 + 2 x534 + 2 x535 + 2 x536 + 2 x537 + 2 x538 + 2 x539 + 2 x540 + 2 x541 + 2 x542 + 2 x543 + 2 x544 + 2 x545 + 2 x546 + 2 x547 + 2 x548 + 2 x549 + 2 x550 + 2 x551 + 2 x552 + 2 x553 + 2 x554 + 2 x555 + 2 x556 + 2 x557 + 2 x558 + 2 x559 + 2 x560 + 2 x561 + 2 x562 + 2 x563 + 2 x564 + 2 x565 + 2 x566 + 2 x567 + 2 x568 + 2 x569 + 2 x570 + 2 x571 + 2 x572 + 2 x573 + 2 x574 + 2 x575 + 2 x576 + 2 x577 + 2 x578 + 2 x579 + 2 x580 + 2 x581 + 2 x582 + 2 x583 + 2 x584 + 2 x585 + 2 x586 + 2 x587 + 2 x588 + 2 x589 + 2 x590 + 2 x591 + 2 x592 + 2 x593 + 2 x594 + 2 x595 + 2 x596 + 2 x597 + 2 x598 + 2 x599 + 2 x600 + 2 x601 + 2 x602 + 2 x603 + 2 x604 + 2 x605 + 2 x606 + 2 x607 + 2 x608 + 2 x609 + 2 x610 + 2 x611 + 2 x612 + 2 x613 + 2 x614 + 2 x615 + 2 x616 + 2 x617 + 2 x618 + 2 x619 + 2 x620 + 2 x621 + 2 x622 + 2 x623 + 2 x624 + 2 x625 + 2 x626 + 2 x627 + 2 x628 + 2 x629 + 2 x630 + 2 x631 + 2 x632 + 2 x633 + 2 x634 + 2 x635 + 2 x636 + 2 x637 + 2 x638 + 2 x639 + 2 x640 + 2 x641 + 2 x642 + 2 x643 + 2 x644 + 2 x645 + 2 x646 + 2 x647 + 2 x648 + 2 x649 + 2 x650 + 2 x651 + 2 x652 + 2 x653 + 2 x654 + 2 x655 + 2 x656 + 2 x657 + 2 x658 + 2 x659 + 2 x660 + 2 x661 + 2 x662 + 2 x663 + 2 x664 + 2 x665 + 2 x666 + 2 x667 + 2 x668 + 2 x669 + 2 x670 + 2 x671 + 2 x672 + 2 x673 + 2 x674 + 2 x675 + 2 x676 + 2 x677 + 2 x678 + 2 x679 + 2 x680 + 2 x681 + 2 x682 + 2 x683 + 2 x684 + 2 x685 + 2 x686 + 2 x687 + 2 x688 + 2 x689 + 2 x690 + 2 x691 + 2 x692 + 2 x693 + 2 x694 + 2 x695 + 2 x696 + 2 x697 + 2 x698 + 2 x699 + 2 x700 + 2 x701 + 2 x702 + 2 x703 + 2 x704 + 2 x705 + 2 x706 + 2 x707 + 2 x708 + 2 x709 + 2 x710 + 2 x711 + 2 x712 + 2 x713 + 2 x714 + 2 x715 + 2 x716 + 2 x717 + 2 x718 + 2 x719 + 2 x720 + 2 x721 + 2 x722 + 2 x723 + 2 x724 + 2 x725 + 2 x726 + 2 x727 + 2 x728 + 2 x729 + 2 x730 + 2 x731 + 2 x732 + 2 x733 + 2 x734 + 2 x735 + 2 x736 + 2 x737 + 2 x738 + 2 x739 + 2 x740 + 2 x741 + 2 x742 + 2 x743 + 2 x744 + 2 x745 + 2 x746 + 2 x747 + 2 x748 + 2 x749 + 2 x750 + 2 x751 + 2 x752 + 2 x753 + 2 x754 + 2 x755 + 2 x756 + 2 x757 + 2 x758 + 2 x759 + 2 x760 + 2 x761 + 2 x762 + 2 x763 + 2 x764 + 2 x765 + 2 x766 + 2 x767 + 2 x768 + 2 x769 + 2 x770 + 2 x771 + 2 x772 + 2 x773 + 2 x774 + 2 x775 + 2 x776 + 2 x777 + 2 x778 + 2 x779 + 2 x780 + 2 x781 + 2 x782 + 2 x783 + 2 x784 + 2 x785 + 2 x786 + 2 x787 + 2 x788 + 2 x789 + 2 x790 + 2 x791 + 2 x792 + 2 x793 + 2 x794 + 2 x795 + 2 x796 + 2 x797 + 2 x798 + 2 x799 + 2 x800 + 2 x801 + 2 x802 + 2 x803 + 2 x804 + 2 x805 + 2 x806 + 2 x807 + 2 x808 + 2 x809 + 2 x810 + 2 x811 + 2 x812 + 2 x813 + 2 x814 + 2 x815 + 2 x816 + 2 x817 + 2 x818 + 2 x819 + 2 x820 + 2 x821 + 2 x822 + 2 x823 + 2 x824 + 2 x825 + 2 x826 + 2 x827 + 2 x828 + 2 x829 + 2 x830 + 2 x831 + 2 x832 + 2 x833 + 2 x834 + 2 x835 + 2 x836 + 2 x837 + 2 x838 + 2 x839 + 2 x840 + 2 x841 + 2 x842 + 2 x843 + 2 x844 + 2 x845 + 2 x846 + 2 x847 + 2 x848 + 2 x849 + 2 x850 + 2 x851 + 2 x852 + 2 x853 + 2 x854 + 2 x855 + 2 x856 + 2 x857 + 2 x858 + 2 x859 + 2 x860 + 2 x861 + 2 x862 + 2 x863 + 2 x864 + 2 x865 + 2 x866 + 2 x867 + 2 x868 + 2 x869 + 2 x870 + 2 x871 + 2 x872 + 2 x873 + 2 x874 + 2 x875 + 2 x876 + 2 x877 + 2 x878 + 2 x879 + 2 x880 + 2 x881 + 2 x882 + 2 x883 + 2 x884 + 2 x885 + 2 x886 + 2 x887 + 2 x888 + 2 x889 + 2 x890 + 2 x891 + 2 x892 + 2 x893 + 2 x894 + 2 x895 + 2 x896 + 2 x897 + 2 x898 + 2 x899 + 2 x900 + 2 x901 + 2 x902 + 2 x903 + 2 x904 + 2 x905 + 2 x906 + 2 x907 + 2 x908 + 2 x909 + 2 x910 + 2 x911 + 2 x912 + 2 x913 + 2 x914 + 2 x915 + 2 x916 + 2 x917 + 2 x918 + 2 x919 + 2 x920 + 2 x921 + 2 x922 + 2 x923 + 2 x924 + 2 x925 + 2 x926 + 2 x927 + 2 x928 + 2 x929 + 2 x930 + 2 x931 + 2 x932 + 2 x933 + 2 x934 + 2 x935 + 2 x936 + 2 x937 + 2 x938 + 2 x939 + 2 x940 + 2 x941 + 2 x942 + 2 x943 + 2 x944 + 2 x945 + 2 x946 + 2 x947 + 2 x948 + 2 x949 + 2 x950 + 2 x951 + 2 x952 + 2 x953 + 2 x954 + 2 x955 + 2 x956 + 2 x957 + 2 x958 + 2 x959 + 2 x960 + 2 x961 + 2 x962 + 2 x963 + 2 x964 + 2 x965 + 2 x966 + 2 x967 + 2 x968 + 2 x969 + 2 x970 + 2 x971 + 2 x972 + 2 x973 + 2 x974 + 2 x975 + 2 x976 + 2 x977 + 2 x978 + 2 x979 + 2 x980 + 2 x981 + 2 x982 + 2 x983 + 2 x984 + 2 x985 + 2 x986 + 2 x987 + 2 x988 + 2 x989 + 2 x990 + 2 x991 + 2 x992 + 2 x993 + 2 x994 + 2 x995 + 2 x996 + 2 x997 + 2 x998 + 2 x999 = 999
Binary
  x1 x2 x3 x4 x5 x6 x7 x8 x9 x10 x11 x12 x13 x14 x15 x16 x17 x18 x19 x20 x21 x22 x23 x24 x25 x26 x27 x28 x29 x30 x31 x32 x33 x34 x35 x36 x37 x38 x39 x40 x41 x42 x43 x44 x45 x46 x47 x48 x49 x50 x51 x52 x53 x54 x55 x56 x57 x58 x59 x60 x61 x62 x63 x64 x65 x66 x67 x68 x69 x70 x71 x72 x73 x74 x75 x76 x77 x78 x79 x80 x81 x82 x83 x84 x85 x86 x87 x88 x89 x90 x91 x92 x93 x94 x95 x96 x97 x98 x99 x100 x101 x102 x103 x104 x105 x106 x107 x108 x109 x110 x111 x112 x113 x114 x115 x116 x117 x118 x119 x120 x121 x122 x123 x124 x125 x126 x127 x128 x129 x130 x131 x132 x133 x134 x135 x136 x137 x138 x139 x140 x141 x142 x143 x144 x145 x146 x147 x148 x149 x150 x151 x152 x153 x154 x155 x156 x157 x158 x159 x160 x161 x162 x163 x164 x165 x166 x167 x168 x169 x170 x171 x172 x173 x174 x175 x176 x177 x178 x179 x180 x181 x182 x183 x184 x185 x186 x187 x188 x189 x190 x191 x192 x193 x194 x195 x196 x197 x198 x199 x200 x201 x202 x203 x204 x205 x206 x207 x208 x209 x210 x211 x212 x213 x214 x215 x216 x217 x218 x219 x220 x221 x222 x223 x224 x225 x226 x227 x228 x229 x230 x231 x232 x233 x234 x235 x236 x237 x238 x239 x240 x241 x242 x243 x244 x245 x246 x247 x248 x249 x250 x251 x252 x253 x254 x255 x256 x257 x258 x259 x260 x261 x262 x263 x264 x265 x266 x267 x268 x269 x270 x271 x272 x273 x274 x275 x276 x277 x278 x279 x280 x281 x282 x283 x284 x285 x286 x287 x288 x289 x290 x291 x292 x293 x294 x295 x296 x297 x298 x299 x300 x301 x302 x303 x304 x305 x306 x307 x308 x309 x310 x311 x312 x313 x314 x315 x316 x317 x318 x319 x320 x321 x322 x323 x324 x325 x326 x327 x328 x329 x330 x331 x332 x333 x334 x335 x336 x337 x338 x339 x340 x341 x342 x343 x344 x345 x346 x347 x348 x349 x350 x351 x352 x353 x354 x355 x356 x357 x358 x359 x360 x361 x362 x363 x364 x365 x366 x367 x368 x369 x370 x371 x372 x373 x374 x375 x376 x377 x378 x379 x380 x381 x382 x383 x384 x385 x386 x387 x388 x389 x390 x391 x392 x393 x394 x395 x396 x397 x398 x399 x400 x401 x402 x403 x404 x405 x406 x407 x408 x409 x410 x411 x412 x413 x414 x415 x416 x417 x418 x419 x420 x421 x422 x423 x424 x425 x426 x427 x428 x429 x430 x431 x432 x433 x434 x435 x436 x437 x438 x439 x440 x441 x442 x443 x444 x445 x446 x447 x448 x449 x450 x451 x452 x453 x454 x455 x456 x457 x458 x459 x460 x461 x462 x463 x464 x465 x466 x467 x468 x469 x470 x471 x472 x473 x474 x475 x476 x477 x478 x479 x480 x481 x482 x483 x484 x485 x486 x487 x488 x489 x490 x491 x492 x493 x494 x495 x496 x497 x498 x499 x500 x501 x502 x503 x504 x505 x506 x507 x508 x509 x510 x511 x512 x513 x514 x515 x516 x517 x518 x519 x520 x521 x522 x523 x524 x525 x526 x527 x528 x529 x530 x531 x532 x533 x534 x535 x536 x537 x538 x539 x540 x541 x542 x543 x544 x545 x546 x547 x548 x549 x550 x551 x552 x553 x554 x555 x556 x557 x558 x559 x560 x561 x562 x563 x564 x565 x566 x567 x568 x569 x570 x571 x572 x573 x574 x575 x576 x577 x578 x579 x580 x581 x582 x583 x584 x585 x586 x587 x588 x589 x590 x591 x592 x593 x594 x595 x596 x597 x598 x599 x600 x601 x602 x603 x604 x605 x606 x607 x608 x609 x610 x611 x612 x613 x614 x615 x616 x617 x618 x619 x620 x621 x622 x623 x624 x625 x626 x627 x628 x629 x630 x631 x632 x633 x634 x635 x636 x637 x638 x639 x640 x641 x642 x643 x644 x645 x646 x647 x648 x649 x650 x651 x652 x653 x654 x655 x656 x657 x658 x659 x660 x661 x662 x663 x664 x665 x666 x667 x668 x669 x670 x671 x672 x673 x674 x675 x676 x677 x678 x679 x680 x681 x682 x683 x684 x685 x686 x687 x688 x689 x690 x691 x692 x693 x694 x695 x696 x697 x698 x699 x700 x701 x702 x703 x704 x705 x706 x707 x708 x709 x710 x711 x712 x713 x714 x715 x716 x717 x718 x719 x720 x721 x722 x723 x724 x725 x726 x727 x728 x729 x730 x731 x732 x733 x734 x735 x736 x737 x738 x739 x740 x741 x742 x743 x744 x745 x746 x747 x748 x749 x750 x751 x752 x753 x754 x755 x756 x757 x758 x759 x760 x761 x762 x763 x764 x765 x766 x767 x768 x769 x770 x771 x772 x773 x774 x775 x776 x777 x778 x779 x780 x781 x782 x783 x784 x785 x786 x787 x788 x789 x790 x791 x792 x793 x794 x795 x796 x797 x798 x799 x800 x801 x802 x803 x804 x805 x806 x807 x808 x809 x810 x811 x812 x813 x814 x815 x816 x817 x818 x819 x820 x821 x822 x823 x824 x825 x826 x827 x828 x829 x830 x831 x832 x833 x834 x835 x836 x837 x838 x839 x840 x841 x842 x843 x844 x845 x846 x847 x848 x849 x850 x851 x852 x853 x854 x855 x856 x857 x858 x859 x860 x861 x862 x863 x864 x865 x866 x867 x868 x869 x870 x871 x872 x873 x874 x875 x876 x877 x878 x879 x880 x881 x882 x883 x884 x885 x886 x887 x888 x889 x890 x891 x892 x893 x894 x895 x896 x897 x898 x899 x900 x901 x902 x903 x904 x905 x906 x907 x908 x909 x910 x911 x912 x913 x914 x915 x916 x917 x918 x919 x920 x921 x922 x923 x924 x925 x926 x927 x928 x929 x930 x931 x932 x933 x934 x935 x936 x937 x938 x939 x940 x941 x942 x943 x944 x945 x946 x947 x948 x949 x950 x951 x952 x953 x954 x955 x956 x957 x958 x959 x960 x961 x962 x963 x964 x965 x966 x967 x968 x969 x970 x971 x972 x973 x974 x975 x976 x977 x978 x979 x980 x981 x982 x983 x984 x985 x986 x987 x988 x989 x990 x991 x992 x993 x994 x995 x996 x997 x998 x999
End
